0 67 
1 69 
2 68 
3 71 
4 72 
5 84 
6 85 
7 85 
8 85 
9 84 
10 86 
11 87 
12 86 
13 85 
14 84 
15 83 
16 81 
17 78 
18 76 
19 74 
20 74 
21 74 
22 72 
23 70 
24 71 
25 70 
26 70 
27 69 
28 68 
29 67 
30 67 
31 67 
32 67 
33 66 
34 64 
35 61 
36 61 
37 58 
38 58 
39 58 
40 59 
41 60 
42 58 
43 55 
44 54 
45 53 
46 49 
47 47 
48 46 
49 45 
50 45 
51 44 
52 44 
53 43 
54 42 
55 45 
56 45 
57 45 
58 48 
59 45 
60 42 
61 43 
62 41 
63 39 
64 36 
65 33 
66 31 
67 29 
68 29 
69 30 
70 30 
71 30 
72 30 
73 31 
74 31 
75 29 
76 27 
77 25 
78 24 
79 23 
80 23 
81 22 
82 24 
83 23 
84 23 
85 22 
86 21 
87 19 
88 19 
89 19 
90 19 
91 20 
92 19 
93 18 
94 16 
95 14 
96 13 
97 12 
98 12 
99 12 
100 11 
101 11 
102 10 
103 9 
104 10 
105 10 
106 9 
107 8 
108 7 
109 10 
110 8 
111 8 
112 7 
113 6 
114 6 
115 6 
116 6 
117 5 
118 4 
119 2 
120 0 
121 0 

